c WARNING: for repeatability, setting FPU to use double precision
d VARIABLES            61300        
d CONSTRAINTS          261893       
c ============================[ Problem Statistics ]=============================
c |                                                                             |
c |  Number of variables:         61300                                         |
c |  Number of clauses:          261893                                         |
c |  Parse time:                   0.04 s                                       |
c |                                                                             |
c ============================[ Search Statistics ]==============================
c | Conflicts |          ORIGINAL         |          LEARNT          | Progress |
c |           |    Vars  Clauses Literals |    Limit  Clauses Lit/Cl |          |
c ===============================================================================
c |       100 |   49107   227209   552974 |    83309      100     27 | 19.891 % |
c |       250 |   49107   227209   552974 |    91640      250     46 | 19.891 % |
c |       475 |   49107   227209   552974 |   100805      475     80 | 19.891 % |
c |       812 |   49107   227209   552974 |   110885      812     70 | 19.891 % |
c |      1318 |   49107   227209   552974 |   121974     1318     78 | 19.891 % |
c |      2077 |   49107   227209   552974 |   134171     2077     91 | 19.891 % |
c |      3216 |   49107   227209   552974 |   147588     3216    134 | 19.891 % |
c |      4924 |   49107   227209   552974 |   162347     4924    123 | 19.891 % |
c |      7486 |   49107   227209   552974 |   178582     7486    122 | 19.891 % |
c |     11330 |   49107   227209   552974 |   196440    11330    121 | 19.891 % |
c |     17096 |   49107   227209   552974 |   216084    17096    110 | 19.891 % |
c |     25745 |   49107   227209   552974 |   237693    25745    102 | 19.891 % |
c |     38719 |   49107   227209   552974 |   261462    38719    111 | 19.891 % |
c |     58180 |   49107   227209   552974 |   287608    58180    105 | 19.891 % |
c |     87372 |   49107   227209   552974 |   316369    87372     99 | 19.891 % |
c |    131161 |   49107   227209   552974 |   348006   131161     95 | 19.891 % |
c |    196845 |   49107   227209   552974 |   382807   196845     94 | 19.891 % |
c |    295371 |   49107   227209   552974 |   421087   295371     92 | 19.891 % |
c |    443160 |   49107   227209   552974 |   463196    31297    100 | 19.891 % |
c |    664843 |   49107   227209   552974 |   509516   252980     94 | 19.891 % |
c |    997368 |   49106   227199   552951 |   560467    90551     84 | 19.892 % |
c |   1496156 |   49106   227199   552951 |   616514    47091     60 | 19.892 % |
c |   2244338 |   49104   227181   552910 |   678166   191113    101 | 19.896 % |
c ===============================================================================
c restarts              : 5118
c conflicts             : 2928386        (1633 /sec)
c decisions             : 4849204        (0.00 % random) (2704 /sec)
c propagations          : 3322822023     (1852554 /sec)
c conflict literals     : 265416986      (55.73 % deleted)
d RESTARTS             5118
d FAILURES             2928386      
d NODES                4849204      
d BACKTRACKS           4849204      
d PROPAGATIONS         3322822023   
d NOGOODSIZE           90.64 
d MEMORY               468.00 
d TIME                 1793.64 

s UNKNOWN
